Instance name : nyc-n100-5
Authors       : Isaiah Reimer (isaiah.reimer@rideco.com). RideCo (rideco.com)
Date          : 2023-04-01
Reference     : Rideco PDPTW Solver
Solution
Route 1 : 45 29 12 95 26 16 62 11 79 17 61 3 6 76 67 53 56 66 1 51 5 30 55 80 31 49 46 42 99 96 81 43 92 38 93 88 25 24 33 75 48 98 37 13 74 63 83 87
Route 2 : 15 20 70 4 22 28 18 54 68 2 78 72 52 65 35 10 41 8 85 39 9 58 60 89 59 7 91 57 21 27 23 19 73 36 32 77 69 14 71 34 86 50 82 64 44 40 94 100 84 90 47 97
